# LAMMPS

variable	xx equal 300
variable	yy equal 300
variable	zz equal 300


units		real
atom_style	atomic

lattice		fcc 10
region		box block 0 ${xx} 0 ${yy} 0 ${zz} units box
boundary p p p
create_box	1 box

region fluidregion block 0 ${xx} 0 ${yy} 0 ${zz} units box
region constrainreg block 0 ${xx} 200 220  0 ${zz} units box

create_atoms 1 region fluidregion units box

mass		1 1.0

velocity	all create 1000.0 87287 loop geom

pair_style	lj/cut 10
pair_coeff	1 1 2.5 3.4

neighbor	2.0 bin
neigh_modify delay 0 every 1 check yes

variable dx equal 20
variable dy equal 20
variable dz equal 20 


thermo 10

fix		1 all nve

# Equilibrate before coupling
run 10

# IMPORTANT for not messing the internal average for BCs in the CPLSocket for LAMMPS
reset_timestep 0

compute vfieldcompute all chunk/atom bin/3d x lower ${dx} y  lower ${dy} z  lower ${dz} ids every region constrainreg units box
# The output shows the middle coordinate of each box (10, 10, 10) for the first box in this case
fix vfieldfix all ave/chunk 1 1 1 vfieldcompute vx vy vz norm all file lammps_vels.dat
