# VARIABLES
variable        xlo equal 0.0
variable        xhi equal 0.1
variable        ylo equal 0.0
variable        yhi equal 10.0
variable        zlo equal 0.0
variable        zhi equal 0.1
variable 		x0 equal 0.05
variable 		y0 equal 9.95
variable 		z0 equal 0.05
variable        vx0 equal 0.0
variable        vy0 equal 0.0
variable        vz0 equal 0.0
variable        diameter equal 0.04
variable        density equal 2.65
variable        skindist equal 0.00001
variable        kn equal 1e5
variable        kt equal 0
variable        gamma_n equal 1e5
variable        gamma_t equal 0
variable        frictionCoeff equal 0.25
variable        timestep equal 5.0e-6
variable        gravity equal 981.0
variable        dragModel string Stokes
variable        dynamic_viscosity equal 1.0e-2
variable        fluid_density equal 1.00
variable        Nt_output equal 100
variable        Nt_run equal 40000

# INITIALISATION
units           cgs
boundary        f f f
atom_style      sphere
atom_modify     map array
dimension       3
newton          off
comm_modify     mode single vel yes
processors      * * *

region          reg block ${xlo} ${xhi} ${ylo} ${yhi} ${zlo} ${zhi} units box
create_box      1 reg
create_atoms    1 single ${x0} ${y0} ${z0}
set             type 1 diameter ${diameter} density ${density} vx ${vx0} vx ${vy0} vx ${vz0}

neighbor        ${skindist} bin
neigh_modify    delay 0

# MATERIAL SETTINGS
pair_style      gran/hooke/history ${kn} ${kt} ${gamma_n} ${gamma_t} ${frictionCoeff} 0
pair_coeff      * *

# SIMULATION SETTINGS
timestep        ${timestep}
run_style       verlet
fix             0 all gravity ${gravity} vector 0 -1 0
fix            	1 all nve/sphere
fix            	2 all momentum 1 linear 1 0 1 
fix            	3  all wall/gran hooke/history ${kn} ${kt} ${gamma_n} ${gamma_t} ${frictionCoeff} 0 yplane ${ylo} ${yhi}

# OUTPUT SETTINGS
variable        time equal time
variable        atoms equal atoms
variable        xy equal y[${atoms}]
variable        vy equal vy[${atoms}]
variable        fy equal fy[${atoms}]
fix             4 all print ${Nt_output} "${time} ${xy} ${vy} ${fy}" file lammps/print_terminal.txt screen no

thermo          ${Nt_output}
thermo_style    custom step atoms v_xy v_vy

# COUPLER SETTINGS
variable 		cellVol equal 0.1^3
variable 		solidVol equal PI*(${diameter}^3)/6
variable 		porosity equal (${cellVol}-${solidVol})/${cellVol}
if "${dragModel} == Drag" then &
    "variable       Cd equal 3*PI*${dynamic_viscosity}*${diameter}*${porosity}" & 
    "fix            5 all cpl/init region all forcetype Drag Cd ${Cd} gradP true divstress true overlap false interpolation false sendtype granfull" &
elif "${dragModel} == Stokes" &
    "fix            5 all cpl/init region all forcetype Stokes mu ${dynamic_viscosity} rho ${fluid_density} gradP true divstress true overlap false interpolation false sendtype granfull"

# RUN SIMULATION
run                 ${Nt_run}
