#INITIALISATION
units 	 cgs
atom_style 	 sphere
atom_modify 	 map array
boundary 	 p f p
dimension 	 3
newton 	 off
comm_modify 	 mode single vel yes
processors 	 1 1 1

read_data 	 lammps/single.lj
neighbor 	 5e-03 bin
neigh_modify 	 delay 0
#PRE-FIX SETTINGS
pair_style 	 gran/shm/history 290000 0.2 0.25
pair_coeff 	 * *
timestep 	 5e-06
run_style 	 verlet

#FIX SETTINGS
fix 	 1 all nve/sphere
fix 	 2 all gravity 981.0 vector 0 -1 0
fix 	 3 all wall/gran shm/history 290000 0.2 0.25 yplane 0.0 10.0

variable 	 step equal step
variable 	 xx equal x[1]
variable 	 xy equal y[1]
variable 	 xz equal z[1]
variable 	 vx equal vx[1]
variable 	 vy equal vy[1]
variable 	 vz equal vz[1]
variable 	 forcex equal fx[1]
variable 	 forcey equal fy[1]
variable 	 forcez equal fz[1]
fix 	 4 all print 1000 "${step} ${xx} ${xy} ${xz} ${vx} ${vy} ${vz} ${forcex} ${forcey} ${forcez}" file lammps/thermo_output.txt screen no

#OUTPUT SETTINGS
thermo 		1000
thermo_style custom step atoms v_xy v_vy
dump 	 6 all dcd 1000 lammps/vmd_out.dcd

#COUPLER SETTINGS
variable Cd equal 3*3.14159265359*1e-2*0.05
fix 5 all cpl/init region all forcetype Drag Cd ${Cd} gradP true divstress true overlap false interpolation false sendtype granfull
# fix 5 all cpl/init region all forcetype Stokes mu 1e-2 gradP true divstress true overlap false interpolation false sendtype granfull

#RUN SETTINGS
run 	 50000